webassembly/ejemplos_dzn/15/folder15_json_62.dzn
TERM = { '.', 's(5)', 's(2)', 's(4)', 'in_1', 'local_0', 'local_1', 'in_6', 'in_2', 'in_4', 'in_3', 'in_8', 's(6)', 's(1)', 's(0)', 'in_7', 'in_5', 's(3)', 'in_0'};
null = '.';
s = 15;
n = 15;
ndeps = 5;
max_registers_sz = 5;
NR = 2;
registers = [|'local_0', 'in_7', |'local_1', 's(6)'|];
dependencies = [|'call[function_index(0)]_2', 'i32.load_6', |'i32.load_6', 'i32.store16_9', |'i32.store16_9', 'i32.load16_s_10', |'i32.load16_s_10', 'i32.store8_11', |'i32.store8_11', 'i32.load_14'|];
GET_ENUM = { GET1, GET2, GET3, GET4, GET5, GET6, GET7};
SET_ENUM = { SET1, SET2, SET3, SET4, SET5, SET6, SET7};
TEE_ENUM = { TEE1, TEE2, TEE3, TEE4, TEE5, TEE6, TEE7};
N = 9;
OP = { 'call[function_index(0)]_2', 'i32.const_0', 'i32.load_6', 'i32.sub_0', 'i32.store16_9', 'i32.load16_s_10', 'i32.store8_11', 'i32.sub_1', 'i32.load_14' };
in_ops = [3, 0, 1, 2, 2, 1, 2, 2, 1 ];
out_ops = [1, 1, 1, 1, 0, 1, 0, 1, 1 ];
in1 = ['in_0', '.', 's(6)', 'in_2', 's(2)', 'in_5', 's(3)', 'in_7', 's(4)' ];
in2 = ['in_0', '.', '.', 'in_3', 'in_4', '.', 'in_6', 'in_8', '.' ];
in3 = ['in_1', '.', '.', '.', '.', '.', '.', '.', '.' ];
out1 = ['s(0)', 's(6)', 's(1)', 's(2)', '.', 's(3)', '.', 's(4)', 's(5)' ];
out2 = ['.', '.', '.', '.', '.', '.', '.', '.', '.' ];
out3 = ['.', '.', '.', '.', '.', '.', '.', '.', '.' ];
comm = [false, false, false, false, false, false, false, false, false ];
gas = [1, 1, 1, 1, 1, 1, 1, 1, 1 ];
sz = [1, 1, 1, 1, 1, 1, 1, 1, 1 ];
stor = [true, false, false, false, true, false, true, false, false ];
lb = [ 1, 1, 1, 1, 1, 1, 1, 1, 1 ];
ub = [ 15, 15, 15, 15, 15, 15, 15, 15, 15 ];
startstack = [ 'in_0', 'in_1', 'in_2', 'in_3', 'in_4', 'in_5', 'in_6', 'in_7', 'in_8', null, null, null, null, null, null ];
endstack = [ 's(5)', null, null, null, null, null, null, null, null, null, null, null, null, null, null ];
