webassembly/ejemplos_results/15/folder15_json_62.txt
=====UNSATISFIABLE=====
% time elapsed: 0.74 s
